p cnf 258 1734
81 85 231 0
115 148 166 0
77 99 114 0
46 98 147 0
173 178 0
37 80 203 249 0
22 71 76 112 0
88 105 107 0
16 87 102 121 139 0
126 129 152 184 200 0
136 239 0
108 186 0
8 145 190 192 0
123 124 150 218 0
130 151 0
82 137 154 0
75 113 119 0
89 94 106 0
67 70 153 0
61 63 64 65 132 0
57 59 83 134 138 0
51 54 55 141 0
47 49 93 0
44 45 96 0
40 42 43 90 0
32 33 35 36 38 73 117 0
24 26 29 31 72 0
19 21 23 104 0
15 18 95 0
66 103 110 125 0
10 12 0
9 53 0
7 144 0
122 146 0
6 39 79 0
5 17 101 0
2 3 13 69 0
68 127 133 155 156 0
60 62 157 159 160 0
50 52 142 161 0
48 116 162 0
149 163 167 168 0
100 109 170 0
171 172 197 241 0
27 74 174 175 179 0
180 205 0
111 181 0
11 182 0
140 183 0
120 128 143 185 0
187 188 0
189 191 193 194 0
195 196 0
-99 -198 0
-99 -173 0
-99 -203 0
-173 -198 0
-198 -203 0
-173 -203 0
-87 -152 0
-87 -136 0
-8 -87 0
-136 -152 0
-8 -152 0
-8 -136 0
-59 -132 0
-55 -132 0
-49 -132 0
-55 -59 0
-49 -59 0
-49 -55 0
-31 -38 0
-23 -38 0
-18 -38 0
-23 -31 0
-18 -31 0
-18 -23 0
-13 -127 0
-13 -116 0
-13 -163 0
-116 -127 0
-127 -163 0
-116 -163 0
-120 -201 0
-120 -202 0
-120 -195 0
-201 -202 0
-195 -201 0
-195 -202 0
-38 -132 0
-13 -132 0
-120 -132 0
-13 -38 0
-38 -120 0
-13 -120 0
-31 -59 0
-59 -127 0
-59 -201 0
-31 -127 0
-31 -201 0
-127 -201 0
-87 -99 0
-55 -99 0
-23 -99 0
-55 -87 0
-23 -87 0
-23 -55 0
-152 -198 0
-49 -198 0
-18 -198 0
-49 -152 0
-18 -152 0
-18 -49 0
-136 -173 0
-116 -173 0
-173 -202 0
-116 -136 0
-136 -202 0
-116 -202 0
-8 -203 0
-163 -203 0
-195 -203 0
-8 -163 0
-8 -195 0
-163 -195 0
-76 -118 0
-88 -118 0
-76 -88 0
-65 -153 0
-134 -153 0
-54 -153 0
-78 -153 0
-65 -134 0
-54 -65 0
-65 -78 0
-54 -134 0
-78 -134 0
-54 -78 0
-36 -43 0
-29 -43 0
-21 -43 0
-43 -103 0
-29 -36 0
-21 -36 0
-36 -103 0
-21 -29 0
-29 -103 0
-21 -103 0
-3 -17 0
-17 -68 0
-17 -62 0
-17 -142 0
-3 -68 0
-3 -62 0
-3 -142 0
-62 -68 0
-68 -142 0
-62 -142 0
-100 -197 0
-92 -100 0
-100 -174 0
-100 -204 0
-92 -197 0
-174 -197 0
-197 -204 0
-92 -174 0
-92 -204 0
-174 -204 0
-118 -153 0
-43 -118 0
-17 -118 0
-100 -118 0
-43 -153 0
-17 -153 0
-100 -153 0
-17 -43 0
-43 -100 0
-17 -100 0
-65 -76 0
-36 -76 0
-3 -76 0
-76 -197 0
-36 -65 0
-3 -65 0
-65 -197 0
-3 -36 0
-36 -197 0
-3 -197 0
-88 -134 0
-29 -88 0
-68 -88 0
-88 -92 0
-29 -134 0
-68 -134 0
-92 -134 0
-29 -68 0
-29 -92 0
-68 -92 0
-21 -54 0
-54 -62 0
-54 -174 0
-21 -62 0
-21 -174 0
-62 -174 0
-78 -103 0
-78 -142 0
-78 -204 0
-103 -142 0
-103 -204 0
-142 -204 0
-85 -158 0
-158 -166 0
-158 -206 0
-80 -158 0
-85 -166 0
-85 -206 0
-80 -85 0
-166 -206 0
-80 -166 0
-80 -206 0
-123 -207 0
-130 -207 0
-89 -207 0
-207 -209 0
-123 -130 0
-89 -123 0
-123 -209 0
-89 -130 0
-130 -209 0
-89 -209 0
-64 -70 0
-57 -70 0
-70 -96 0
-70 -210 0
-57 -64 0
-64 -96 0
-64 -210 0
-57 -96 0
-57 -210 0
-96 -210 0
-35 -90 0
-26 -90 0
-90 -211 0
-53 -90 0
-26 -35 0
-35 -211 0
-35 -53 0
-26 -211 0
-26 -53 0
-53 -211 0
-170 -171 0
-41 -170 0
-41 -171 0
-158 -207 0
-70 -158 0
-90 -158 0
-158 -170 0
-70 -207 0
-90 -207 0
-170 -207 0
-70 -90 0
-70 -170 0
-90 -170 0
-85 -123 0
-64 -85 0
-35 -85 0
-85 -171 0
-64 -123 0
-35 -123 0
-123 -171 0
-35 -64 0
-64 -171 0
-35 -171 0
-130 -166 0
-57 -166 0
-26 -166 0
-41 -166 0
-57 -130 0
-26 -130 0
-41 -130 0
-26 -57 0
-41 -57 0
-26 -41 0
-89 -206 0
-96 -206 0
-206 -211 0
-89 -96 0
-89 -211 0
-96 -211 0
-80 -209 0
-80 -210 0
-53 -80 0
-209 -210 0
-53 -209 0
-53 -210 0
-112 -177 0
-16 -177 0
-177 -184 0
-16 -112 0
-112 -184 0
-16 -184 0
-215 -218 0
-82 -215 0
-215 -217 0
-82 -218 0
-217 -218 0
-82 -217 0
-33 -42 0
-86 -157 0
-157 -167 0
-86 -167 0
-74 -205 0
-74 -182 0
-182 -205 0
-177 -215 0
-42 -177 0
-42 -215 0
-112 -218 0
-33 -112 0
-33 -218 0
-16 -82 0
-16 -157 0
-16 -74 0
-82 -157 0
-74 -82 0
-74 -157 0
-184 -217 0
-86 -184 0
-184 -205 0
-86 -217 0
-205 -217 0
-86 -205 0
-167 -182 0
-139 -221 0
-139 -239 0
-139 -186 0
-139 -190 0
-221 -239 0
-186 -221 0
-190 -221 0
-186 -239 0
-190 -239 0
-186 -190 0
-113 -154 0
-154 -222 0
-94 -154 0
-14 -154 0
-113 -222 0
-94 -113 0
-14 -113 0
-94 -222 0
-14 -222 0
-14 -94 0
-63 -83 0
-63 -164 0
-45 -63 0
-63 -223 0
-83 -164 0
-45 -83 0
-83 -223 0
-45 -164 0
-164 -223 0
-45 -223 0
-24 -32 0
-12 -32 0
-32 -224 0
-9 -32 0
-12 -24 0
-24 -224 0
-9 -24 0
-12 -224 0
-9 -12 0
-9 -224 0
-69 -155 0
-69 -159 0
-52 -69 0
-48 -69 0
-69 -226 0
-69 -168 0
-155 -159 0
-52 -155 0
-48 -155 0
-155 -226 0
-155 -168 0
-52 -159 0
-48 -159 0
-159 -226 0
-159 -168 0
-48 -52 0
-52 -226 0
-52 -168 0
-48 -226 0
-48 -168 0
-168 -226 0
-172 -228 0
-172 -175 0
-20 -172 0
-172 -176 0
-111 -172 0
-11 -172 0
-175 -228 0
-20 -228 0
-176 -228 0
-111 -228 0
-11 -228 0
-20 -175 0
-175 -176 0
-111 -175 0
-11 -175 0
-20 -176 0
-20 -111 0
-11 -20 0
-111 -176 0
-11 -176 0
-11 -111 0
-185 -229 0
-185 -216 0
-185 -189 0
-185 -214 0
-185 -219 0
-185 -196 0
-216 -229 0
-189 -229 0
-214 -229 0
-219 -229 0
-196 -229 0
-189 -216 0
-214 -216 0
-216 -219 0
-196 -216 0
-189 -214 0
-189 -219 0
-189 -196 0
-214 -219 0
-196 -214 0
-196 -219 0
-32 -63 0
-63 -69 0
-63 -172 0
-63 -185 0
-32 -69 0
-32 -172 0
-32 -185 0
-69 -172 0
-69 -185 0
-172 -185 0
-24 -83 0
-83 -155 0
-83 -228 0
-83 -229 0
-24 -155 0
-24 -228 0
-24 -229 0
-155 -228 0
-155 -229 0
-228 -229 0
-139 -154 0
-139 -159 0
-139 -175 0
-139 -216 0
-154 -159 0
-154 -175 0
-154 -216 0
-159 -175 0
-159 -216 0
-175 -216 0
-113 -221 0
-52 -221 0
-20 -221 0
-189 -221 0
-52 -113 0
-20 -113 0
-113 -189 0
-20 -52 0
-52 -189 0
-20 -189 0
-222 -239 0
-164 -239 0
-12 -239 0
-48 -239 0
-176 -239 0
-214 -239 0
-164 -222 0
-12 -222 0
-48 -222 0
-176 -222 0
-214 -222 0
-12 -164 0
-48 -164 0
-164 -176 0
-164 -214 0
-12 -48 0
-12 -176 0
-12 -214 0
-48 -176 0
-48 -214 0
-176 -214 0
-94 -186 0
-45 -186 0
-186 -224 0
-186 -226 0
-111 -186 0
-186 -219 0
-45 -94 0
-94 -224 0
-94 -226 0
-94 -111 0
-94 -219 0
-45 -224 0
-45 -226 0
-45 -111 0
-45 -219 0
-224 -226 0
-111 -224 0
-219 -224 0
-111 -226 0
-219 -226 0
-111 -219 0
-14 -190 0
-190 -223 0
-9 -190 0
-168 -190 0
-11 -190 0
-190 -196 0
-14 -223 0
-9 -14 0
-14 -168 0
-11 -14 0
-14 -196 0
-9 -223 0
-168 -223 0
-11 -223 0
-196 -223 0
-9 -168 0
-9 -11 0
-9 -196 0
-11 -168 0
-168 -196 0
-11 -196 0
-135 -231 0
-135 -148 0
-77 -135 0
-135 -230 0
-135 -147 0
-37 -135 0
-148 -231 0
-77 -231 0
-230 -231 0
-147 -231 0
-37 -231 0
-77 -148 0
-148 -230 0
-147 -148 0
-37 -148 0
-77 -230 0
-77 -147 0
-37 -77 0
-147 -230 0
-37 -230 0
-37 -147 0
-22 -30 0
-30 -105 0
-30 -102 0
-30 -126 0
-30 -233 0
-30 -145 0
-22 -105 0
-22 -102 0
-22 -126 0
-22 -233 0
-22 -145 0
-102 -105 0
-105 -126 0
-105 -233 0
-105 -145 0
-102 -126 0
-102 -233 0
-102 -145 0
-126 -233 0
-126 -145 0
-145 -233 0
-124 -234 0
-151 -234 0
-137 -234 0
-234 -235 0
-119 -234 0
-4 -234 0
-124 -151 0
-124 -137 0
-124 -235 0
-119 -124 0
-4 -124 0
-137 -151 0
-151 -235 0
-119 -151 0
-4 -151 0
-137 -235 0
-119 -137 0
-4 -137 0
-119 -235 0
-4 -235 0
-4 -119 0
-61 -67 0
-67 -138 0
-67 -141 0
-67 -93 0
-67 -199 0
-61 -138 0
-61 -141 0
-61 -93 0
-61 -199 0
-138 -141 0
-93 -138 0
-138 -199 0
-93 -141 0
-141 -199 0
-93 -199 0
-7 -236 0
-7 -146 0
-7 -237 0
-7 -238 0
-7 -79 0
-146 -236 0
-236 -237 0
-236 -238 0
-79 -236 0
-146 -237 0
-146 -238 0
-79 -146 0
-237 -238 0
-79 -237 0
-79 -238 0
-2 -5 0
-5 -133 0
-5 -60 0
-5 -56 0
-5 -50 0
-2 -133 0
-2 -60 0
-2 -56 0
-2 -50 0
-60 -133 0
-56 -133 0
-50 -133 0
-56 -60 0
-50 -60 0
-50 -56 0
-140 -143 0
-140 -220 0
-140 -240 0
-140 -187 0
-140 -191 0
-143 -220 0
-143 -240 0
-143 -187 0
-143 -191 0
-220 -240 0
-187 -220 0
-191 -220 0
-187 -240 0
-191 -240 0
-187 -191 0
-30 -135 0
-135 -234 0
-67 -135 0
-7 -135 0
-5 -135 0
-135 -140 0
-30 -234 0
-30 -67 0
-7 -30 0
-5 -30 0
-30 -140 0
-67 -234 0
-7 -234 0
-5 -234 0
-140 -234 0
-7 -67 0
-5 -67 0
-67 -140 0
-5 -7 0
-7 -140 0
-5 -140 0
-22 -231 0
-124 -231 0
-61 -231 0
-231 -236 0
-2 -231 0
-143 -231 0
-22 -124 0
-22 -61 0
-22 -236 0
-2 -22 0
-22 -143 0
-61 -124 0
-124 -236 0
-2 -124 0
-124 -143 0
-61 -236 0
-2 -61 0
-61 -143 0
-2 -236 0
-143 -236 0
-2 -143 0
-105 -148 0
-148 -151 0
-138 -148 0
-146 -148 0
-133 -148 0
-148 -220 0
-105 -151 0
-105 -138 0
-105 -146 0
-105 -133 0
-105 -220 0
-138 -151 0
-146 -151 0
-133 -151 0
-151 -220 0
-138 -146 0
-133 -138 0
-138 -220 0
-133 -146 0
-146 -220 0
-133 -220 0
-77 -102 0
-77 -137 0
-77 -141 0
-77 -237 0
-60 -77 0
-77 -240 0
-102 -137 0
-102 -141 0
-102 -237 0
-60 -102 0
-102 -240 0
-137 -141 0
-137 -237 0
-60 -137 0
-137 -240 0
-141 -237 0
-60 -141 0
-141 -240 0
-60 -237 0
-237 -240 0
-60 -240 0
-126 -230 0
-230 -235 0
-93 -230 0
-230 -238 0
-56 -230 0
-187 -230 0
-126 -235 0
-93 -126 0
-126 -238 0
-56 -126 0
-126 -187 0
-93 -235 0
-235 -238 0
-56 -235 0
-187 -235 0
-93 -238 0
-56 -93 0
-93 -187 0
-56 -238 0
-187 -238 0
-56 -187 0
-147 -233 0
-119 -147 0
-147 -199 0
-79 -147 0
-50 -147 0
-147 -191 0
-119 -233 0
-199 -233 0
-79 -233 0
-50 -233 0
-191 -233 0
-119 -199 0
-79 -119 0
-50 -119 0
-119 -191 0
-79 -199 0
-50 -199 0
-191 -199 0
-50 -79 0
-79 -191 0
-50 -191 0
-37 -145 0
-4 -37 0
-4 -145 0
-58 -81 0
-58 -242 0
-58 -98 0
-58 -91 0
-58 -249 0
-81 -242 0
-81 -98 0
-81 -91 0
-81 -249 0
-98 -242 0
-91 -242 0
-242 -249 0
-91 -98 0
-98 -249 0
-91 -249 0
-28 -71 0
-28 -129 0
-28 -213 0
-28 -108 0
-28 -192 0
-71 -129 0
-71 -213 0
-71 -108 0
-71 -192 0
-129 -213 0
-108 -129 0
-129 -192 0
-108 -213 0
-192 -213 0
-108 -192 0
-150 -243 0
-243 -245 0
-75 -243 0
-106 -243 0
-243 -246 0
-150 -245 0
-75 -150 0
-106 -150 0
-150 -246 0
-75 -245 0
-106 -245 0
-245 -246 0
-75 -106 0
-75 -246 0
-106 -246 0
-40 -117 0
-40 -95 0
-40 -66 0
-95 -117 0
-66 -117 0
-66 -95 0
-144 -247 0
-144 -248 0
-6 -144 0
-247 -248 0
-6 -247 0
-6 -248 0
-149 -232 0
-28 -58 0
-58 -243 0
-40 -58 0
-58 -144 0
-28 -243 0
-28 -40 0
-28 -144 0
-40 -243 0
-144 -243 0
-40 -144 0
-71 -81 0
-81 -150 0
-81 -117 0
-81 -247 0
-71 -150 0
-71 -117 0
-71 -247 0
-117 -150 0
-150 -247 0
-117 -247 0
-129 -242 0
-242 -245 0
-95 -242 0
-242 -248 0
-129 -245 0
-95 -129 0
-129 -248 0
-95 -245 0
-245 -248 0
-95 -248 0
-98 -213 0
-75 -98 0
-66 -98 0
-6 -98 0
-75 -213 0
-66 -213 0
-6 -213 0
-66 -75 0
-6 -75 0
-6 -66 0
-91 -108 0
-91 -106 0
-91 -232 0
-106 -108 0
-108 -232 0
-106 -232 0
-192 -249 0
-246 -249 0
-149 -249 0
-192 -246 0
-149 -192 0
-149 -246 0
-72 -73 0
-73 -104 0
-73 -125 0
-72 -104 0
-72 -125 0
-104 -125 0
-122 -208 0
-131 -208 0
-39 -208 0
-122 -131 0
-39 -122 0
-39 -131 0
-97 -241 0
-27 -241 0
-241 -250 0
-27 -97 0
-97 -250 0
-27 -250 0
-128 -212 0
-128 -244 0
-128 -193 0
-212 -244 0
-193 -212 0
-193 -244 0
-73 -208 0
-73 -241 0
-73 -128 0
-208 -241 0
-128 -208 0
-128 -241 0
-72 -122 0
-72 -97 0
-72 -212 0
-97 -122 0
-122 -212 0
-97 -212 0
-104 -131 0
-27 -104 0
-104 -244 0
-27 -131 0
-131 -244 0
-27 -244 0
-39 -125 0
-125 -250 0
-125 -193 0
-39 -250 0
-39 -193 0
-193 -250 0
-84 -115 0
-84 -114 0
-84 -165 0
-46 -84 0
-114 -115 0
-115 -165 0
-46 -115 0
-114 -165 0
-46 -114 0
-46 -165 0
-25 -107 0
-25 -121 0
-25 -200 0
-25 -225 0
-107 -121 0
-107 -200 0
-107 -225 0
-121 -200 0
-121 -225 0
-200 -225 0
-47 -51 0
-51 -227 0
-51 -169 0
-44 -51 0
-47 -227 0
-47 -169 0
-44 -47 0
-169 -227 0
-44 -227 0
-44 -169 0
-15 -19 0
-19 -110 0
-10 -19 0
-19 -251 0
-15 -110 0
-10 -15 0
-15 -251 0
-10 -110 0
-110 -251 0
-10 -251 0
-101 -156 0
-101 -160 0
-101 -252 0
-101 -161 0
-101 -162 0
-101 -253 0
-156 -160 0
-156 -252 0
-156 -161 0
-156 -162 0
-156 -253 0
-160 -252 0
-160 -161 0
-160 -162 0
-160 -253 0
-161 -252 0
-162 -252 0
-252 -253 0
-161 -162 0
-161 -253 0
-162 -253 0
-34 -109 0
-109 -179 0
-109 -180 0
-109 -254 0
-109 -255 0
-109 -181 0
-34 -179 0
-34 -180 0
-34 -254 0
-34 -255 0
-34 -181 0
-179 -180 0
-179 -254 0
-179 -255 0
-179 -181 0
-180 -254 0
-180 -255 0
-180 -181 0
-254 -255 0
-181 -254 0
-181 -255 0
-183 -256 0
-183 -257 0
-183 -188 0
-183 -194 0
-183 -258 0
-1 -183 0
-256 -257 0
-188 -256 0
-194 -256 0
-256 -258 0
-1 -256 0
-188 -257 0
-194 -257 0
-257 -258 0
-1 -257 0
-188 -194 0
-188 -258 0
-1 -188 0
-194 -258 0
-1 -194 0
-1 -258 0
-25 -84 0
-84 -101 0
-84 -109 0
-84 -183 0
-25 -101 0
-25 -109 0
-25 -183 0
-101 -109 0
-101 -183 0
-109 -183 0
-107 -115 0
-115 -156 0
-34 -115 0
-115 -256 0
-107 -156 0
-34 -107 0
-107 -256 0
-34 -156 0
-156 -256 0
-34 -256 0
-114 -121 0
-51 -114 0
-19 -114 0
-114 -160 0
-114 -179 0
-114 -257 0
-51 -121 0
-19 -121 0
-121 -160 0
-121 -179 0
-121 -257 0
-19 -51 0
-51 -160 0
-51 -179 0
-51 -257 0
-19 -160 0
-19 -179 0
-19 -257 0
-160 -179 0
-160 -257 0
-179 -257 0
-165 -200 0
-47 -165 0
-15 -165 0
-165 -252 0
-165 -180 0
-165 -188 0
-47 -200 0
-15 -200 0
-200 -252 0
-180 -200 0
-188 -200 0
-15 -47 0
-47 -252 0
-47 -180 0
-47 -188 0
-15 -252 0
-15 -180 0
-15 -188 0
-180 -252 0
-188 -252 0
-180 -188 0
-46 -225 0
-46 -227 0
-46 -110 0
-46 -161 0
-46 -254 0
-46 -194 0
-225 -227 0
-110 -225 0
-161 -225 0
-225 -254 0
-194 -225 0
-110 -227 0
-161 -227 0
-227 -254 0
-194 -227 0
-110 -161 0
-110 -254 0
-110 -194 0
-161 -254 0
-161 -194 0
-194 -254 0
-10 -169 0
-162 -169 0
-169 -255 0
-169 -258 0
-10 -162 0
-10 -255 0
-10 -258 0
-162 -255 0
-162 -258 0
-255 -258 0
-44 -251 0
-44 -253 0
-44 -181 0
-1 -44 0
-251 -253 0
-181 -251 0
-1 -251 0
-181 -253 0
-1 -253 0
-1 -181 0
-76 -118 0
-88 -118 0
-76 -88 0
-85 -158 0
-158 -166 0
-158 -207 0
-123 -158 0
-130 -158 0
-85 -166 0
-85 -207 0
-85 -123 0
-85 -130 0
-166 -207 0
-123 -166 0
-130 -166 0
-123 -207 0
-130 -207 0
-123 -130 0
-112 -177 0
-177 -215 0
-177 -218 0
-112 -215 0
-112 -218 0
-215 -218 0
-135 -231 0
-135 -148 0
-30 -135 0
-22 -135 0
-105 -135 0
-135 -234 0
-124 -135 0
-135 -151 0
-148 -231 0
-30 -231 0
-22 -231 0
-105 -231 0
-231 -234 0
-124 -231 0
-151 -231 0
-30 -148 0
-22 -148 0
-105 -148 0
-148 -234 0
-124 -148 0
-148 -151 0
-22 -30 0
-30 -105 0
-30 -234 0
-30 -124 0
-30 -151 0
-22 -105 0
-22 -234 0
-22 -124 0
-22 -151 0
-105 -234 0
-105 -124 0
-105 -151 0
-124 -234 0
-151 -234 0
-124 -151 0
-58 -81 0
-28 -58 0
-58 -71 0
-58 -243 0
-58 -150 0
-28 -81 0
-71 -81 0
-81 -243 0
-81 -150 0
-28 -71 0
-28 -243 0
-28 -150 0
-71 -243 0
-71 -150 0
-150 -243 0
-84 -115 0
-25 -84 0
-84 -107 0
-25 -115 0
-107 -115 0
-25 -107 0
-99 -198 0
-87 -99 0
-99 -152 0
-87 -198 0
-152 -198 0
-87 -152 0
-16 -184 0
-16 -82 0
-16 -217 0
-82 -184 0
-184 -217 0
-82 -217 0
-139 -221 0
-139 -154 0
-113 -139 0
-154 -221 0
-113 -221 0
-113 -154 0
-77 -230 0
-77 -147 0
-77 -102 0
-77 -126 0
-77 -233 0
-77 -137 0
-77 -235 0
-77 -119 0
-147 -230 0
-102 -230 0
-126 -230 0
-230 -233 0
-137 -230 0
-230 -235 0
-119 -230 0
-102 -147 0
-126 -147 0
-147 -233 0
-137 -147 0
-147 -235 0
-119 -147 0
-102 -126 0
-102 -233 0
-102 -137 0
-102 -235 0
-102 -119 0
-126 -233 0
-126 -137 0
-126 -235 0
-119 -126 0
-137 -233 0
-233 -235 0
-119 -233 0
-137 -235 0
-119 -137 0
-119 -235 0
-98 -242 0
-129 -242 0
-213 -242 0
-242 -245 0
-75 -242 0
-98 -129 0
-98 -213 0
-98 -245 0
-75 -98 0
-129 -213 0
-129 -245 0
-75 -129 0
-213 -245 0
-75 -213 0
-75 -245 0
-114 -165 0
-46 -114 0
-114 -121 0
-114 -200 0
-114 -225 0
-46 -165 0
-121 -165 0
-165 -200 0
-165 -225 0
-46 -121 0
-46 -200 0
-46 -225 0
-121 -200 0
-121 -225 0
-200 -225 0
-173 -203 0
-136 -173 0
-8 -173 0
-136 -203 0
-8 -203 0
-8 -136 0
-80 -206 0
-89 -206 0
-206 -209 0
-80 -89 0
-80 -209 0
-89 -209 0
-186 -239 0
-190 -239 0
-222 -239 0
-94 -239 0
-14 -239 0
-186 -190 0
-186 -222 0
-94 -186 0
-14 -186 0
-190 -222 0
-94 -190 0
-14 -190 0
-94 -222 0
-14 -222 0
-14 -94 0
-37 -145 0
-4 -37 0
-4 -145 0
-91 -249 0
-91 -108 0
-91 -192 0
-91 -106 0
-91 -246 0
-108 -249 0
-192 -249 0
-106 -249 0
-246 -249 0
-108 -192 0
-106 -108 0
-108 -246 0
-106 -192 0
-192 -246 0
-106 -246 0
-59 -132 0
-38 -132 0
-31 -132 0
-38 -59 0
-31 -59 0
-31 -38 0
-65 -153 0
-134 -153 0
-43 -153 0
-36 -153 0
-29 -153 0
-65 -134 0
-43 -65 0
-36 -65 0
-29 -65 0
-43 -134 0
-36 -134 0
-29 -134 0
-36 -43 0
-29 -43 0
-29 -36 0
-64 -70 0
-57 -70 0
-70 -90 0
-35 -70 0
-26 -70 0
-57 -64 0
-64 -90 0
-35 -64 0
-26 -64 0
-57 -90 0
-35 -57 0
-26 -57 0
-35 -90 0
-26 -90 0
-26 -35 0
-33 -42 0
-63 -83 0
-32 -63 0
-24 -63 0
-32 -83 0
-24 -83 0
-24 -32 0
-61 -67 0
-67 -138 0
-7 -67 0
-67 -236 0
-67 -146 0
-61 -138 0
-7 -61 0
-61 -236 0
-61 -146 0
-7 -138 0
-138 -236 0
-138 -146 0
-7 -236 0
-7 -146 0
-146 -236 0
-40 -117 0
-40 -144 0
-40 -247 0
-117 -144 0
-117 -247 0
-144 -247 0
-72 -73 0
-73 -208 0
-73 -122 0
-72 -208 0
-72 -122 0
-122 -208 0
-49 -55 0
-23 -55 0
-18 -55 0
-23 -49 0
-18 -49 0
-18 -23 0
-54 -78 0
-21 -54 0
-54 -103 0
-21 -78 0
-78 -103 0
-21 -103 0
-93 -141 0
-141 -199 0
-141 -237 0
-141 -238 0
-79 -141 0
-93 -199 0
-93 -237 0
-93 -238 0
-79 -93 0
-199 -237 0
-199 -238 0
-79 -199 0
-237 -238 0
-79 -237 0
-79 -238 0
-66 -95 0
-95 -248 0
-6 -95 0
-66 -248 0
-6 -66 0
-6 -248 0
-104 -125 0
-104 -131 0
-39 -104 0
-125 -131 0
-39 -125 0
-39 -131 0
-47 -51 0
-51 -227 0
-19 -51 0
-15 -51 0
-51 -110 0
-47 -227 0
-19 -47 0
-15 -47 0
-47 -110 0
-19 -227 0
-15 -227 0
-110 -227 0
-15 -19 0
-19 -110 0
-15 -110 0
-96 -210 0
-96 -211 0
-53 -96 0
-210 -211 0
-53 -210 0
-53 -211 0
-45 -164 0
-164 -223 0
-12 -164 0
-164 -224 0
-9 -164 0
-45 -223 0
-12 -45 0
-45 -224 0
-9 -45 0
-12 -223 0
-223 -224 0
-9 -223 0
-12 -224 0
-9 -12 0
-9 -224 0
-44 -169 0
-10 -169 0
-169 -251 0
-10 -44 0
-44 -251 0
-10 -251 0
-13 -127 0
-13 -120 0
-13 -201 0
-120 -127 0
-127 -201 0
-120 -201 0
-3 -17 0
-17 -68 0
-17 -100 0
-17 -197 0
-17 -92 0
-3 -68 0
-3 -100 0
-3 -197 0
-3 -92 0
-68 -100 0
-68 -197 0
-68 -92 0
-100 -197 0
-92 -100 0
-92 -197 0
-170 -171 0
-41 -170 0
-41 -171 0
-69 -155 0
-69 -172 0
-69 -228 0
-69 -185 0
-69 -229 0
-155 -172 0
-155 -228 0
-155 -185 0
-155 -229 0
-172 -228 0
-172 -185 0
-172 -229 0
-185 -228 0
-228 -229 0
-185 -229 0
-2 -5 0
-5 -133 0
-5 -140 0
-5 -143 0
-5 -220 0
-2 -133 0
-2 -140 0
-2 -143 0
-2 -220 0
-133 -140 0
-133 -143 0
-133 -220 0
-140 -143 0
-140 -220 0
-143 -220 0
-97 -241 0
-128 -241 0
-212 -241 0
-97 -128 0
-97 -212 0
-128 -212 0
-101 -156 0
-101 -109 0
-34 -101 0
-101 -183 0
-101 -256 0
-109 -156 0
-34 -156 0
-156 -183 0
-156 -256 0
-34 -109 0
-109 -183 0
-109 -256 0
-34 -183 0
-34 -256 0
-183 -256 0
-62 -142 0
-62 -174 0
-62 -204 0
-142 -174 0
-142 -204 0
-174 -204 0
-86 -157 0
-74 -157 0
-157 -205 0
-74 -86 0
-86 -205 0
-74 -205 0
-52 -159 0
-159 -175 0
-20 -159 0
-159 -216 0
-159 -189 0
-52 -175 0
-20 -52 0
-52 -216 0
-52 -189 0
-20 -175 0
-175 -216 0
-175 -189 0
-20 -216 0
-20 -189 0
-189 -216 0
-56 -60 0
-50 -60 0
-60 -240 0
-60 -187 0
-60 -191 0
-50 -56 0
-56 -240 0
-56 -187 0
-56 -191 0
-50 -240 0
-50 -187 0
-50 -191 0
-187 -240 0
-191 -240 0
-187 -191 0
-27 -250 0
-27 -244 0
-27 -193 0
-244 -250 0
-193 -250 0
-193 -244 0
-160 -252 0
-160 -161 0
-160 -179 0
-160 -180 0
-160 -254 0
-160 -257 0
-160 -188 0
-160 -194 0
-161 -252 0
-179 -252 0
-180 -252 0
-252 -254 0
-252 -257 0
-188 -252 0
-194 -252 0
-161 -179 0
-161 -180 0
-161 -254 0
-161 -257 0
-161 -188 0
-161 -194 0
-179 -180 0
-179 -254 0
-179 -257 0
-179 -188 0
-179 -194 0
-180 -254 0
-180 -257 0
-180 -188 0
-180 -194 0
-254 -257 0
-188 -254 0
-194 -254 0
-188 -257 0
-194 -257 0
-188 -194 0
-116 -163 0
-116 -202 0
-116 -195 0
-163 -202 0
-163 -195 0
-195 -202 0
-167 -182 0
-48 -226 0
-48 -168 0
-48 -176 0
-48 -111 0
-11 -48 0
-48 -214 0
-48 -219 0
-48 -196 0
-168 -226 0
-176 -226 0
-111 -226 0
-11 -226 0
-214 -226 0
-219 -226 0
-196 -226 0
-168 -176 0
-111 -168 0
-11 -168 0
-168 -214 0
-168 -219 0
-168 -196 0
-111 -176 0
-11 -176 0
-176 -214 0
-176 -219 0
-176 -196 0
-11 -111 0
-111 -214 0
-111 -219 0
-111 -196 0
-11 -214 0
-11 -219 0
-11 -196 0
-214 -219 0
-196 -214 0
-196 -219 0
-149 -232 0
-162 -253 0
-162 -255 0
-162 -181 0
-162 -258 0
-1 -162 0
-253 -255 0
-181 -253 0
-253 -258 0
-1 -253 0
-181 -255 0
-255 -258 0
-1 -255 0
-181 -258 0
-1 -181 0
-1 -258 0
